
Welcome to IBM(R) ILOG(R) CPLEX(R) Interactive Optimizer 12.7.1.0
  with Simplex, Mixed Integer & Barrier Optimizers
5725-A06 5725-A29 5724-Y48 5724-Y49 5724-Y54 5724-Y55 5655-Y21
Copyright IBM Corp. 1988, 2017.  All Rights Reserved.

Type 'help' for a list of available commands.
Type 'help' followed by a command name for more
information on commands.

CPLEX> New value for default parallel thread count: 1
CPLEX> New value for time limit in seconds: 3600
CPLEX> Problem 'eil76_m32.lp' read.
Read time = 0.21 sec. (20.04 ticks)
CPLEX> CPXPARAM_TimeLimit                               3600
CPXPARAM_Threads                                 1
CPXPARAM_Read_APIEncoding                        "UTF-8"
Tried aggregator 1 time.
MIP Presolve modified 187200 coefficients.
Reduced MIP has 8196 rows, 182476 columns, and 1091516 nonzeros.
Reduced MIP has 182400 binaries, 75 generals, 0 SOSs, and 0 indicators.
Presolve time = 0.63 sec. (823.87 ticks)
Tried aggregator 1 time.
Reduced MIP has 8196 rows, 182476 columns, and 1091516 nonzeros.
Reduced MIP has 182400 binaries, 76 generals, 0 SOSs, and 0 indicators.
Presolve time = 0.70 sec. (574.65 ticks)
Probing time = 0.20 sec. (86.87 ticks)
Clique table members: 356195.
MIP emphasis: balance optimality and feasibility.
MIP search method: dynamic search.
Parallel mode: none, using 1 thread.
Root relaxation solution time = 136.10 sec. (208255.35 ticks)

        Nodes                                         Cuts/
   Node  Left     Objective  IInf  Best Integer    Best Bound    ItCnt     Gap

      0     0       44.4482   281                     44.4482   180409         
      0     0       45.3139   319                    Cuts: 58   221576         
      0     0       46.0000   566                   Cuts: 130   274533         
      0     0       46.0000   517                    Cuts: 65   311825         
      0     0       46.0000   515                   Cuts: 103   336571         
      0     0       46.0000   359                    Cuts: 21   357654         
      0     0       46.0000   424                   Cuts: 153   382345         
Heuristic still looking.
Heuristic still looking.
      0     2       46.0000   278                     46.0000   382345         
Elapsed time = 990.67 sec. (1525382.96 ticks, tree = 0.01 MB, solutions = 0)
      1     3       46.0000   309                     46.0000   382817         
      2     4       46.0000   333                     46.0000   383968         
      3     5       46.0000   337                     46.0000   384672         
      4     6       46.0000   367                     46.0000   386666         
      5     7       46.0000   350                     46.0000   387575         
      6     8       46.0000   368                     46.0000   403280         
      7     9       46.0000   372                     46.0000   429067         
      8    10       46.0000   351                     46.0000   444350         
      9    11       46.0000   307                     46.0000   444999         
     10    12       46.0000   319                     46.0000   445277         
Elapsed time = 1100.57 sec. (1702101.76 ticks, tree = 1.43 MB, solutions = 0)
     11    13       46.0000   328                     46.0000   446002         
     12    14       46.0000   329                     46.0000   446358         
     13    15       46.0000   318                     46.0000   453192         
     15    17       46.0000   333                     46.0000   462643         
     17    19       46.0000   321                     46.0000   478383         
     19    21       46.0000   338                     46.0000   479022         
     21    23       46.0000   293                     46.0000   480059         
     23    25       46.0000   287                     46.0000   480492         
     27    29       46.0000   281                     46.0000   485592         
     31    33       46.0000   367                     46.0000   486230         
Elapsed time = 1158.14 sec. (1796303.40 ticks, tree = 5.07 MB, solutions = 0)
     32    34       46.0000   273                     46.0000   487812         
     35    35       46.0000   282                     46.0000   489950         
     38    36       46.0000   286                     46.0000   490989         
     40    38       46.0000   277                     46.0000   491565         
     42    40       46.0000   280                     46.0000   492459         
     44    41       47.2330   305                     46.0000   497158         
     46    42       47.8920   299                     46.0000   500172         
     69    59      104.0227   144                     46.0000   500483         
     95    79      131.0000   126                     46.0000   500778         
    112    93    infeasible                           46.0000   501127         
Elapsed time = 1172.60 sec. (1820390.95 ticks, tree = 15.54 MB, solutions = 0)
*   142   106      integral     0      214.0000       46.0000   501468   78.50%
    143   105       46.0000   286      214.0000       46.0000   501603   78.50%
    144   106       47.8920   294      214.0000       46.0000   503448   78.50%
    166   124       57.9091   180      214.0000       46.0000   503852   78.50%
    191   144      121.3068   151      214.0000       46.0000   504272   78.50%
    213   163      144.0000   121      214.0000       46.0000   504660   78.50%
    239   186      144.0000    88      214.0000       46.0000   505023   78.50%
    264   203      189.1136    28      214.0000       46.0000   505566   78.50%
*   271   201      integral     0      212.0000       46.0000   505653   78.30%
    272   200       46.1266   286      212.0000       46.0000   506916   78.30%
    292   214      114.6364   127      212.0000       46.0000   507355   78.30%
    327   243      182.8182   136      212.0000       46.0000   507604   78.30%
Elapsed time = 1180.41 sec. (1833287.49 ticks, tree = 41.36 MB, solutions = 2)
    343   252       46.0398   288      212.0000       46.0000   509009   78.30%
    370   270      136.7273   125      212.0000       46.0000   509439   78.30%
    400   295      167.0000   125      212.0000       46.0000   509710   78.30%
    427   322      167.0000   135      212.0000       46.0000   510042   78.30%
    451   346      167.0000   126      212.0000       46.0000   510410   78.30%
    472   367      167.0000   123      212.0000       46.0000   510884   78.30%
    490   385      167.0000   117      212.0000       46.0000   511387   78.30%
    513   408      167.0000   128      212.0000       46.0000   511789   78.30%
    527   421       47.3125   280      212.0000       46.0000   513557   78.30%
*   528+  412                          201.0000       46.0000            77.11%
*   528+  390                          172.0000       46.0000            73.26%
*   528+  390                          171.0000       46.0000            73.10%
    528   391       46.0000   286      171.0000       46.0000   520210   73.10%
Elapsed time = 1234.77 sec. (1914028.05 ticks, tree = 67.06 MB, solutions = 5)
    529   391       46.0000   283      171.0000       46.0000   527658   73.10%
    555   408      134.1477   125      171.0000       46.0000   528029   73.10%
    576   419       83.0455   178      171.0000       46.0000   528390   73.10%
    602   441      139.7500   117      171.0000       46.0000   528711   73.10%
    616   449       46.0000   277      171.0000       46.0000   531677   73.10%
    617   449       53.6023   437      171.0000       46.0000   534312   73.10%
    629   457       96.4091   191      171.0000       46.0000   534749   73.10%
    658   484      156.4318   142      171.0000       46.0000   535023   73.10%
    665   483       46.0000   292      171.0000       46.0000   535840   73.10%
    666   484       53.6023   379      171.0000       46.0000   551444   73.10%
Elapsed time = 1267.03 sec. (1966174.47 ticks, tree = 82.67 MB, solutions = 5)
    680   494       92.3977   226      171.0000       46.0000   551816   73.10%
    707   520      129.7386   189      171.0000       46.0000   552044   73.10%
    739   552      144.6818   175      171.0000       46.0000   552261   73.10%
    746   553       46.0000   324      171.0000       46.0000   556035   73.10%
    747   554       53.6023   356      171.0000       46.0000   559214   73.10%
    766   567       98.3636   185      171.0000       46.0000   559686   73.10%
    786   581      164.3636   146      171.0000       46.0000   560091   73.10%
    794   581       46.0000   299      171.0000       46.0000   568110   73.10%
    796   582       46.0000   300      171.0000       46.0000   568811   73.10%
    797   583       46.0000   300      171.0000       46.0000   573235   73.10%
Elapsed time = 1292.64 sec. (2008606.97 ticks, tree = 99.56 MB, solutions = 5)
    799   585       46.0000   296      171.0000       46.0000   574741   73.10%
    802   588       46.0000   298      171.0000       46.0000   575821   73.10%
    803   589       46.0000   297      171.0000       46.0000   576468   73.10%
    805   591       46.0000   307      171.0000       46.0000   576923   73.10%
    806   592       46.0000   327      171.0000       46.0000   577596   73.10%
    808   594       46.0000   311      171.0000       46.0000   578490   73.10%
    810   596       46.0000   303      171.0000       46.0000   579053   73.10%
    812   598       46.0000   290      171.0000       46.0000   579490   73.10%
    814   600       46.0000   305      171.0000       46.0000   580185   73.10%
    817   603       46.0000   293      171.0000       46.0000   580649   73.10%
Elapsed time = 1303.42 sec. (2028285.09 ticks, tree = 102.90 MB, solutions = 5)
    818   604       46.0000   296      171.0000       46.0000   581261   73.10%
    820   606       46.0000   317      171.0000       46.0000   581622   73.10%
    821   607       46.0000   314      171.0000       46.0000   582731   73.10%
    822   607       46.0150   301      171.0000       46.0000   583512   73.10%
    839   622       89.0000   200      171.0000       46.0000   583875   73.10%
    863   642      121.3182   187      171.0000       46.0000   584136   73.10%
    889   666      163.0000   229      171.0000       46.0000   584403   73.10%
    911   688      163.0000   230      171.0000       46.0000   584663   73.10%
    933   710      163.0000   190      171.0000       46.0000   584970   73.10%
    952   729      163.0000   221      171.0000       46.0000   585314   73.10%
Elapsed time = 1311.32 sec. (2041292.69 ticks, tree = 124.23 MB, solutions = 5)
    971   748      163.0000   227      171.0000       46.0000   585619   73.10%
    988   765      163.0000   223      171.0000       46.0000   585958   73.10%
   1006   783      163.0000   190      171.0000       46.0000   586284   73.10%
   1023   800      163.0000   224      171.0000       46.0000   586634   73.10%
   1044   821      163.0000   200      171.0000       46.0000   586932   73.10%
   1060   837      163.0000   233      171.0000       46.0000   587292   73.10%
   1078   855      163.0000   203      171.0000       46.0000   587653   73.10%
   1098   875      163.0000   221      171.0000       46.0000   587981   73.10%
   1119   896      163.0000   200      171.0000       46.0000   588268   73.10%
   1164   941       46.0000   254      171.0000       46.0000   728869   73.10%
Elapsed time = 2305.30 sec. (3447834.60 ticks, tree = 160.17 MB, solutions = 5)
   1165   942       46.0000   287      171.0000       46.0000   729298   73.10%
   1166   943       46.0000   331      171.0000       46.0000   738698   73.10%
   1167   944       46.0000   318      171.0000       46.0000   739502   73.10%
   1168   944       46.0000   317      171.0000       46.0000   740306   73.10%
   1169   944       46.0000   377      171.0000       46.0000   760663   73.10%
   1170   944       46.0000   432      171.0000       46.0000   785478   73.10%
   1171   944       46.0000   411      171.0000       46.0000   785820   73.10%
   1172   944       46.0000   398      171.0000       46.0000   797572   73.10%
   1173   945       46.0000   359      171.0000       46.0000   805826   73.10%
   1174   945       46.0000   320      171.0000       46.0000   806078   73.10%
Elapsed time = 2528.21 sec. (3803454.14 ticks, tree = 160.72 MB, solutions = 5)
   1176   946       46.0000   323      171.0000       46.0000   806459   73.10%
   1177   947       46.0000   318      171.0000       46.0000   814121   73.10%
   1179   948       46.0000   272      171.0000       46.0000   814152   73.10%
   1181   948       46.0000   352      171.0000       46.0000   826263   73.10%
   1183   948       46.0000   350      171.0000       46.0000   826394   73.10%
   1184   948       46.0000   353      171.0000       46.0000   834055   73.10%
   1185   948       46.0000   350      171.0000       46.0000   834138   73.10%
   1186   949       46.0000   312      171.0000       46.0000   846117   73.10%
   1187   950       52.0000   435      171.0000       46.0000   858765   73.10%
   1188   951       46.0000   325      171.0000       46.0000   858896   73.10%
Elapsed time = 2658.38 sec. (4014601.46 ticks, tree = 161.66 MB, solutions = 5)
   1189   951       46.0000   336      171.0000       46.0000   858926   73.10%
   1191   952       46.0000   345      171.0000       46.0000   859157   73.10%
   1193   952       46.0000   343      171.0000       46.0000   859606   73.10%
   1194   953       46.0000   302      171.0000       46.0000   864872   73.10%
   1196   955       46.0000   294      171.0000       46.0000   871986   73.10%
   1199   957       46.0000   299      171.0000       46.0000   872644   73.10%
   1200   958       46.0000   297      171.0000       46.0000   883345   73.10%
   1202   960       46.0000   302      171.0000       46.0000   883455   73.10%
   1204   961       55.0000   453      171.0000       46.0000   906476   73.10%
   1206   961       55.0000   369      171.0000       46.0000   936564   73.10%
Elapsed time = 2815.87 sec. (4255811.20 ticks, tree = 163.26 MB, solutions = 5)
   1207   962       55.0000   343      171.0000       46.0000   963312   73.10%
   1208   963       55.0000   413      171.0000       46.0000   994541   73.10%
   1209   964       55.0000   283      171.0000       46.0000  1020066   73.10%
   1210   964       55.0000   343      171.0000       46.0000  1046365   73.10%
   1211   964       55.0000   307      171.0000       46.0000  1047153   73.10%
   1212   965       55.0000   280      171.0000       46.0000  1071113   73.10%
   1213   964       55.0000   327      171.0000       46.0000  1071737   73.10%
   1214   963       63.0000   274      171.0000       46.0000  1092405   73.10%
   1215   964       63.0000   274      171.0000       46.0000  1092405   73.10%
   1216   964       63.0000   307      171.0000       46.0000  1092742   73.10%
Elapsed time = 3106.57 sec. (4695617.14 ticks, tree = 163.57 MB, solutions = 5)
   1217   965       63.0000   306      171.0000       46.0000  1092991   73.10%
   1218   966       63.0000   334      171.0000       46.0000  1093198   73.10%
   1219   967       63.0000   342      171.0000       46.0000  1095044   73.10%
   1220   966       63.0000   333      171.0000       46.0000  1095045   73.10%
   1221   966       65.0000   351      171.0000       46.0000  1123253   73.10%
   1222   967       65.0000   404      171.0000       46.0000  1123702   73.10%
   1223   968       65.0000   396      171.0000       46.0000  1123704   73.10%
   1224   969       65.0000   395      171.0000       46.0000  1123748   73.10%
   1225   970       65.0000   320      171.0000       46.0000  1124426   73.10%
   1230   973       78.0000   375      171.0000       46.0000  1150798   73.10%
Elapsed time = 3255.02 sec. (4934455.22 ticks, tree = 165.21 MB, solutions = 5)
   1234   958       65.0000   311      171.0000       46.0000  1151499   73.10%
   1237   960       65.0000   337      171.0000       46.0000  1165523   73.10%
   1239   962       65.0000   420      171.0000       46.0000  1166438   73.10%
   1240   962      104.0000   305      171.0000       46.0000  1184574   73.10%
   1241   962       65.0000   383      171.0000       46.0000  1204951   73.10%
   1242   963       65.0000   299      171.0000       46.0000  1224462   73.10%
   1243   964       65.0000   357      171.0000       46.0000  1225270   73.10%
   1244   965       65.0000   277      171.0000       46.0000  1225677   73.10%
   1246   965       65.0000   307      171.0000       46.0000  1226758   73.10%
   1247   966       65.0000   293      171.0000       46.0000  1245221   73.10%
Elapsed time = 3401.03 sec. (5158035.45 ticks, tree = 163.97 MB, solutions = 5)
   1248   966       65.0000   299      171.0000       46.0000  1245285   73.10%
   1249   966      106.0000   245      171.0000       46.0000  1246700   73.10%
   1250   967      106.0000   256      171.0000       46.0000  1246726   73.10%
   1251   968      106.0000   270      171.0000       46.0000  1246943   73.10%
   1261   975      112.0000   208      171.0000       46.0000  1247110   73.10%
*  1264+  677                          170.0000       46.0000            72.94%
   1264   679      106.0000   239      170.0000       46.0000  1247116   72.94%
   1270   684      106.0000   204      170.0000       46.0000  1247665   72.94%
   1280   679      106.0000   219      170.0000       46.0000  1247946   72.94%
   1286   674      106.0000   157      170.0000       46.0000  1248550   72.94%
   1295   675      109.0000   154      170.0000       46.0000  1248928   72.94%
Elapsed time = 3464.88 sec. (5260926.64 ticks, tree = 114.29 MB, solutions = 6)
   1308   672      125.0000   116      170.0000       46.0000  1249152   72.94%
   1328   680      160.0000   105      170.0000       46.0000  1249396   72.94%
   1345   668       48.0000   366      170.0000       46.0000  1286199   72.94%
   1348   669       48.0000   328      170.0000       46.0000  1286224   72.94%

Clique cuts applied:  2
Cover cuts applied:  9
Mixed integer rounding cuts applied:  20
Zero-half cuts applied:  20
Gomory fractional cuts applied:  2

Root node processing (before b&c):
  Real time             =  931.54 sec. (1481601.45 ticks)
Sequential b&c:
  Real time             = 2668.48 sec. (3992052.06 ticks)
                          ------------
Total (root+branch&cut) = 3600.02 sec. (5473653.51 ticks)

Solution pool: 6 solutions saved.

MIP - Time limit exceeded, integer feasible:  Objective =  1.7000000000e+02
Current MIP best bound =  4.6000000000e+01 (gap = 124, 72.94%)
Solution time = 3600.02 sec.  Iterations = 1288010  Nodes = 1350 (670)
Deterministic time = 5473654.03 ticks  (1520.45 ticks/sec)

CPLEX> Incumbent solution
Variable Name           Solution Value
y                           170.000000
x47                           1.000000
x5839                         1.000000
x11568                        1.000000
x17331                        1.000000
x23154                        1.000000
x28907                        1.000000
x34712                        1.000000
x40455                        1.000000
x46259                        1.000000
x52038                        1.000000
x57786                        1.000000
x63560                        1.000000
x69334                        1.000000
x75157                        1.000000
x80906                        1.000000
x86669                        1.000000
x92457                        1.000000
x98247                        1.000000
x104017                       1.000000
x109797                       1.000000
x115553                       1.000000
x121372                       1.000000
x127110                       1.000000
x132865                       1.000000
x138635                       1.000000
x144474                       1.000000
x150220                       1.000000
x155995                       1.000000
x161789                       1.000000
x167534                       1.000000
x173282                       1.000000
x179124                       1.000000
x3497                         1.000000
x10109                        1.000000
x12693                        1.000000
x17481                        1.000000
x24397                        1.000000
x30933                        1.000000
x38837                        1.000000
x45297                        1.000000
x49553                        1.000000
x55861                        1.000000
x59661                        1.000000
x65285                        1.000000
x70909                        1.000000
x77749                        1.000000
x81169                        1.000000
x88769                        1.000000
x95457                        1.000000
x102297                       1.000000
x107617                       1.000000
x113697                       1.000000
x117953                       1.000000
x126997                       1.000000
x129885                       1.000000
x134065                       1.000000
x143033                       1.000000
x149949                       1.000000
x153141                       1.000000
x161197                       1.000000
x166289                       1.000000
x167885                       1.000000
x177917                       1.000000
x184149                       1.000000
x50012                        1.000000
x83985                        1.000000
x172982                       1.000000
x29799                        1.000000
x42112                        1.000000
x152541                       1.000000
x8066                         1.000000
x155584                       1.000000
x30869                        1.000000
x141222                       1.000000
x171775                       1.000000
x24946                        1.000000
x46455                        1.000000
x160456                       1.000000
x32473                        1.000000
x26853                        1.000000
x31644                        1.000000
x11431                        1.000000
x153476                       1.000000
x10522                        1.000000
x139419                       1.000000
x80292                        1.000000
x30437                        1.000000
x150823                       1.000000
x151052                       1.000000
x51193                        1.000000
x168614                       1.000000
x29384                        1.000000
x56064                        1.000000
x169765                       1.000000
x6518                         1.000000
x139671                       1.000000
x161332                       1.000000
x173418                       1.000000
x170988                       1.000000
x45513                        1.000000
x47642                        1.000000
x41031                        1.000000
x157466                       1.000000
x159215                       1.000000
x153136                       1.000000
x172365                       1.000000
x8359                         1.000000
u4                            1.000000
u5                            1.000000
u6                            6.000000
u7                            2.000000
u8                            1.000000
u9                           39.000000
u10                          42.000000
u11                           1.000000
u12                          42.000000
u13                           1.000000
u14                          42.000000
u15                           2.000000
u18                          43.000000
u19                           2.000000
u20                           3.000000
u21                           4.000000
u24                          43.000000
u25                          42.000000
u28                           6.000000
u31                          41.000000
u32                          38.000000
u34                           1.000000
u35                           2.000000
u36                           1.000000
u37                           5.000000
u39                          40.000000
u40                          43.000000
u44                          37.000000
u45                           4.000000
u46                           3.000000
u48                           3.000000
u49                          43.000000
u52                           3.000000
u57                           1.000000
u58                          43.000000
u59                          43.000000
u60                           2.000000
u62                          43.000000
u64                           4.000000
u65                           5.000000
u66                           3.000000
u67                           4.000000
u70                           4.000000
u71                           1.000000
u72                          41.000000
u73                           5.000000
u75                           2.000000
All other variables in the range 1-182476 are 0.
CPLEX> 